qbf_easy_train/easy_3651_UNSAT.qdimacs
p cnf 25 62
a 16 17 3 0
e 1 2 4 5 6 7 8 9 10 11 12 13 14 15 18 19 20 21 22 23 24 25 0
3 1 0
3 -2 0
-1 2 -3 0
-5 1 0
-5 1 0
-1 5 0
6 -4 0
6 -5 0
4 5 -6 0
9 -7 0
9 -8 0
7 8 -9 0
10 -9 0
10 8 0
9 -8 -10 0
11 -6 0
11 10 0
6 -10 -11 0
3 11 -12 0
-3 -11 -12 0
3 -11 12 0
-3 11 12 0
13 -5 0
13 8 0
5 -8 -13 0
-1 -13 -14 0
1 13 -14 0
-1 13 14 0
1 -13 14 0
18 -16 0
18 -17 0
16 17 -18 0
19 -15 0
19 18 0
15 -18 -19 0
-20 -14 0
-20 -19 0
14 19 20 0
21 8 0
21 1 0
-8 -1 -21 0
18 8 -22 0
-18 -8 -22 0
18 -8 22 0
-18 8 22 0
21 22 -23 0
-21 -22 -23 0
21 -22 23 0
-21 22 23 0
-24 20 0
-24 -23 0
-20 23 24 0
25 -12 0
25 24 0
12 -24 -25 0
-14 15 -5 -8 13 0
5 -17 -18 15 -21 0
24 -16 -3 -25 0
-22 24 12 4 0
-6 10 -21 16 0
4 13 -23 0
25 0
