sat_easy_train/easy_3651_UNSAT.dimacs
p cnf 144 493
3 1 0
3 2 0
-1 -2 -3 0
-5 3 0
-5 -4 0
-3 4 5 0
-9 7 0
-9 8 0
-7 -8 9 0
10 6 0
10 -9 0
-6 9 -10 0
12 10 0
12 -11 0
-10 11 -12 0
13 -5 0
13 -12 0
5 12 -13 0
-7 14 -15 0
7 -14 -15 0
-7 -14 15 0
7 14 15 0
-17 -1 0
-17 -16 0
1 16 17 0
6 18 -19 0
-6 -18 -19 0
6 -18 19 0
-6 18 19 0
-18 19 -20 0
18 -19 -20 0
-18 -19 20 0
18 19 20 0
22 21 0
22 16 0
-21 -16 -22 0
23 -20 0
23 -22 0
20 22 -23 0
-17 -23 -24 0
17 23 -24 0
-17 23 24 0
17 -23 24 0
25 -15 0
25 24 0
15 -24 -25 0
27 -26 0
27 8 0
26 -8 -27 0
28 25 0
28 27 0
-25 -27 -28 0
-29 1 0
-29 18 0
-1 -18 29 0
30 2 0
30 -29 0
-2 29 -30 0
16 -6 -31 0
-16 6 -31 0
16 6 31 0
-16 -6 31 0
3 31 -32 0
-3 -31 -32 0
3 -31 32 0
-3 31 32 0
33 30 0
33 32 0
-30 -32 -33 0
35 -6 0
35 34 0
6 -34 -35 0
34 -35 -36 0
-34 35 -36 0
34 35 36 0
-34 -35 36 0
37 36 0
37 -6 0
-36 6 -37 0
-38 -33 0
-38 -37 0
33 37 38 0
39 -28 0
39 38 0
28 -38 -39 0
-40 -13 0
-40 39 0
13 -39 40 0
4 -8 -41 0
-4 8 -41 0
4 8 41 0
-4 -8 41 0
42 2 -43 0
-42 -2 -43 0
42 -2 43 0
-42 2 43 0
44 43 0
44 -7 0
-43 7 -44 0
-45 41 0
-45 44 0
-41 -44 45 0
-46 -8 0
-46 -22 0
8 22 46 0
47 31 0
47 -46 0
-31 46 -47 0
-48 -42 0
-48 2 0
42 -2 48 0
-49 10 0
-49 -30 0
-10 30 49 0
-49 -2 -50 0
49 2 -50 0
-49 2 50 0
49 -2 50 0
48 -50 -51 0
-48 50 -51 0
48 50 51 0
-48 -50 51 0
-47 -51 -52 0
47 51 -52 0
-47 51 52 0
47 -51 52 0
-45 -52 -53 0
45 52 -53 0
-45 52 53 0
45 -52 53 0
22 -6 -54 0
-22 6 -54 0
22 6 54 0
-22 -6 54 0
-54 18 -55 0
54 -18 -55 0
-54 -18 55 0
54 18 55 0
55 -46 -56 0
-55 46 -56 0
55 46 56 0
-55 -46 56 0
58 9 0
58 -57 0
-9 57 -58 0
-34 -58 -59 0
34 58 -59 0
-34 58 59 0
34 -58 59 0
-60 59 0
-60 19 0
-59 -19 60 0
56 -60 -61 0
-56 60 -61 0
56 60 61 0
-56 -60 61 0
-10 -46 -62 0
10 46 -62 0
-10 46 62 0
10 -46 62 0
8 62 -63 0
-8 -62 -63 0
8 -62 63 0
-8 62 63 0
-64 -1 0
-64 -23 0
1 23 64 0
64 -15 -65 0
-64 15 -65 0
64 15 65 0
-64 -15 65 0
-66 -63 0
-66 -65 0
63 65 66 0
67 61 0
67 66 0
-61 -66 -67 0
-41 36 -68 0
41 -36 -68 0
-41 -36 68 0
41 36 68 0
26 57 -69 0
-26 -57 -69 0
26 -57 69 0
-26 57 69 0
69 -35 -70 0
-69 35 -70 0
69 35 70 0
-69 -35 70 0
-71 70 0
-71 7 0
-70 -7 71 0
72 -68 0
72 -71 0
68 71 -72 0
73 67 0
73 -72 0
-67 72 -73 0
-74 53 0
-74 73 0
-53 -73 74 0
40 -74 -75 0
-40 74 -75 0
40 74 75 0
-40 -74 75 0
76 69 0
76 -35 0
-69 35 -76 0
9 26 -77 0
-9 -26 -77 0
9 -26 77 0
-9 26 77 0
-1 -78 0
1 -78 0
-77 -78 -79 0
77 78 -79 0
-77 78 79 0
77 -78 79 0
76 79 -80 0
-76 -79 -80 0
76 -79 80 0
-76 79 80 0
-81 26 0
-81 -69 0
-26 69 81 0
-82 63 0
-82 -63 0
83 -6 0
83 4 0
6 -4 -83 0
84 77 0
84 -17 0
-77 17 -84 0
64 84 -85 0
-64 -84 -85 0
64 -84 85 0
-64 84 85 0
-83 85 -86 0
83 -85 -86 0
-83 -85 86 0
83 85 86 0
-87 82 0
-87 86 0
-82 -86 87 0
-88 81 0
-88 -87 0
-81 87 88 0
-80 -88 -89 0
80 88 -89 0
-80 88 89 0
80 -88 89 0
-30 -90 0
30 -90 0
7 91 -92 0
-7 -91 -92 0
7 -91 92 0
-7 91 92 0
93 -90 0
93 92 0
90 -92 -93 0
94 12 0
94 -7 0
-12 7 -94 0
-95 24 0
-95 65 0
-24 -65 95 0
96 94 0
96 95 0
-94 -95 -96 0
-49 48 -97 0
49 -48 -97 0
-49 -48 97 0
49 48 97 0
98 96 0
98 97 0
-96 -97 -98 0
99 -93 0
99 98 0
93 -98 -99 0
100 -89 0
100 99 0
89 -99 -100 0
101 24 0
101 -30 0
-24 30 -101 0
102 34 0
102 -42 0
-34 42 -102 0
103 -101 0
103 102 0
101 -102 -103 0
100 103 -104 0
-100 -103 -104 0
100 -103 104 0
-100 103 104 0
-31 64 -105 0
31 -64 -105 0
-31 -64 105 0
31 64 105 0
-106 -105 0
-106 64 0
105 -64 106 0
107 9 0
107 -27 0
-9 27 -107 0
-108 -106 0
-108 107 0
106 -107 108 0
-30 11 -109 0
30 -11 -109 0
-30 -11 109 0
30 11 109 0
-110 48 0
-110 -34 0
-48 34 110 0
31 -110 -111 0
-31 110 -111 0
31 110 111 0
-31 -110 111 0
112 111 0
112 19 0
-111 -19 -112 0
113 36 0
113 -48 0
-36 48 -113 0
114 69 0
114 58 0
-69 -58 -114 0
-113 114 -115 0
113 -114 -115 0
-113 -114 115 0
113 114 115 0
112 115 -116 0
-112 -115 -116 0
112 -115 116 0
-112 115 116 0
-117 -109 0
-117 -116 0
109 116 117 0
34 -49 -118 0
-34 49 -118 0
34 49 118 0
-34 -49 118 0
119 117 0
119 118 0
-117 -118 -119 0
120 -108 0
120 119 0
108 -119 -120 0
-3 -2 -121 0
3 2 -121 0
-3 2 121 0
3 -2 121 0
122 -50 0
122 -69 0
50 69 -122 0
-123 -121 0
-123 -122 0
121 122 123 0
-124 -18 0
-124 -30 0
18 30 124 0
125 -123 0
125 -124 0
123 124 -125 0
126 2 0
126 17 0
-2 -17 -126 0
-127 -125 0
-127 126 0
125 -126 127 0
54 12 -128 0
-54 -12 -128 0
54 -12 128 0
-54 12 128 0
127 128 -129 0
-127 -128 -129 0
127 -128 129 0
-127 128 129 0
130 -42 0
130 84 0
42 -84 -130 0
131 -1 0
131 -130 0
1 130 -131 0
-132 26 0
-132 -35 0
-26 35 132 0
131 132 -133 0
-131 -132 -133 0
131 -132 133 0
-131 132 133 0
-129 133 -134 0
129 -133 -134 0
-129 -133 134 0
129 133 134 0
135 -120 0
135 134 0
120 -134 -135 0
136 -104 0
136 -135 0
104 135 -136 0
8 -34 -137 0
-8 34 -137 0
8 34 137 0
-8 -34 137 0
138 -137 0
138 11 0
137 -11 -138 0
-139 137 0
-139 14 0
-137 -14 139 0
140 -138 0
140 139 0
138 -139 -140 0
141 -35 0
141 85 0
35 -85 -141 0
-142 -140 0
-142 141 0
140 -141 142 0
143 136 0
143 142 0
-136 -142 -143 0
-75 -143 -144 0
75 143 -144 0
-75 143 144 0
75 -143 144 0
14 30 106 -59 111 0
103 -33 0
-122 -6 0
16 47 0
-61 114 56 0
57 -138 86 0
-17 -87 -85 0
-92 -105 -1 0
41 58 -25 24 55 0
-10 32 0
77 -83 92 -28 0
-72 -24 0
-51 0
121 -80 -82 57 0
93 24 -125 -96 23 33 0
-31 97 0
-127 -108 0
43 8 0
-49 58 -16 36 73 0
-18 55 -75 -84 0
-1 116 138 84 -120 -130 0
-104 -56 -45 118 89 35 0
46 32 0
107 14 -76 0
4 48 123 116 0
-86 98 0
119 11 83 118 62 32 0
31 132 -90 -127 0
-140 -4 -26 74 0
58 1 -7 -78 116 0
-111 -13 -2 0
59 36 132 118 79 0
67 85 68 0
-65 -64 140 0
-67 -44 58 68 -72 35 0
-4 -137 -124 -27 -24 0
55 -48 -28 -85 90 88 0
25 44 -81 -97 0
-109 -58 0
5 -26 94 28 0
-138 110 -10 -27 0
105 39 40 128 41 0
25 126 0
-2 -91 -121 0
-38 40 62 21 43 -126 0
-119 -79 0
38 11 0
45 73 0
-45 -120 78 23 -20 0
2 52 -53 -17 128 111 0
-118 -138 -3 -53 -144 -82 0
-43 35 -57 -122 -141 0
-109 -26 -5 77 0
-25 71 92 -60 0
69 -11 92 -12 -14 25 0
49 47 0
-104 105 120 -82 0
2 107 -52 34 -40 96 0
78 -142 56 -73 17 -53 0
60 -6 -39 -54 16 0
-67 -25 0
81 3 10 0
-62 -141 -103 134 28 92 0
140 127 86 94 -71 47 0
144 0
